NAME grafting_srl_ilp
* Max problem is converted into Min one
ROWS
 N  OBJ
 L  constraint1_3580
 L  constraint1_1420
 L  constraint1_1470
 L  constraint2_3580
 L  constraint2_3581
 L  constraint2_3582
 L  constraint2_3583
 L  constraint2_1420
 L  constraint2_1421
 L  constraint2_1422
 L  constraint2_1423
 L  constraint2_1470
 L  constraint2_1471
 L  constraint2_1472
 L  constraint2_1473
COLUMNS
    MARKER    'MARKER'                 'INTORG'
    Z_358_0_0  OBJ       -1.5781044448544834e-03
    Z_358_0_0  constraint1_3580  1
    Z_358_0_0  constraint2_3580  1
    Z_358_0_1  OBJ       -2.3527610140391983e-03
    Z_358_0_1  constraint1_3580  1
    Z_358_0_1  constraint2_3581  1
    Z_358_0_2  OBJ       -7.4038341646829398e-01
    Z_358_0_2  constraint1_3580  1
    Z_358_0_2  constraint2_3582  1
    Z_358_0_3  OBJ       -1.1942744243115865e-03
    Z_358_0_3  constraint1_3580  1
    Z_358_0_3  constraint2_3583  1
    Z_358_0_4  OBJ       -1.5449144364850084e-01
    Z_358_0_4  constraint1_3580  1
    Z_142_0_0  OBJ       -4.1934841403191191e-03
    Z_142_0_0  constraint1_1420  1
    Z_142_0_0  constraint2_1420  1
    Z_142_0_1  OBJ       -1.2291991605919066e-03
    Z_142_0_1  constraint1_1420  1
    Z_142_0_1  constraint2_1421  1
    Z_142_0_2  OBJ       -6.7355456407871328e-01
    Z_142_0_2  constraint1_1420  1
    Z_142_0_2  constraint2_1422  1
    Z_142_0_3  OBJ       -4.6762785456586518e-03
    Z_142_0_3  constraint1_1420  1
    Z_142_0_3  constraint2_1423  1
    Z_142_0_4  OBJ       -2.1634647407471713e-01
    Z_142_0_4  constraint1_1420  1
    Z_147_0_0  OBJ       -5.1383015855194936e-03
    Z_147_0_0  constraint1_1470  1
    Z_147_0_0  constraint2_1470  1
    Z_147_0_1  OBJ       -4.2879667534043188e-03
    Z_147_0_1  constraint1_1470  1
    Z_147_0_1  constraint2_1471  1
    Z_147_0_2  OBJ       -7.9136326051063355e-01
    Z_147_0_2  constraint1_1470  1
    Z_147_0_2  constraint2_1472  1
    Z_147_0_3  OBJ       -1.2046963166191284e-02
    Z_147_0_3  constraint1_1470  1
    Z_147_0_3  constraint2_1473  1
    Z_147_0_4  OBJ       -8.7163507984251376e-02
    Z_147_0_4  constraint1_1470  1
    MARKER    'MARKER'                 'INTEND'
RHS
    RHS1      constraint1_3580  1
    RHS1      constraint1_1420  1
    RHS1      constraint1_1470  1
    RHS1      constraint2_3580  1
    RHS1      constraint2_3581  1
    RHS1      constraint2_3582  1
    RHS1      constraint2_3583  1
    RHS1      constraint2_1420  1
    RHS1      constraint2_1421  1
    RHS1      constraint2_1422  1
    RHS1      constraint2_1423  1
    RHS1      constraint2_1470  1
    RHS1      constraint2_1471  1
    RHS1      constraint2_1472  1
    RHS1      constraint2_1473  1
BOUNDS
 UP BND1      Z_358_0_0  1
 UP BND1      Z_358_0_1  1
 UP BND1      Z_358_0_2  1
 UP BND1      Z_358_0_3  1
 UP BND1      Z_358_0_4  1
 UP BND1      Z_142_0_0  1
 UP BND1      Z_142_0_1  1
 UP BND1      Z_142_0_2  1
 UP BND1      Z_142_0_3  1
 UP BND1      Z_142_0_4  1
 UP BND1      Z_147_0_0  1
 UP BND1      Z_147_0_1  1
 UP BND1      Z_147_0_2  1
 UP BND1      Z_147_0_3  1
 UP BND1      Z_147_0_4  1
QUADOBJ
    Z_142_0_0  Z_147_0_0  -3.3384745841929902e-07
    Z_142_0_1  Z_147_0_1  -3.3384745841929902e-07
    Z_142_0_2  Z_147_0_2  -3.3384745841929902e-07
    Z_142_0_3  Z_147_0_3  -3.3384745841929902e-07
    Z_142_0_4  Z_147_0_4  -3.3384745841929902e-07
ENDATA
